(set-logic ALL)
; benchmark generated from python API
(set-info :status unknown)
(declare-datatypes ((Proc 0)) (((coinbase) (foo_func))))
(declare-fun w_0 () Int)
(declare-fun success_1 () Bool)
(declare-fun t_success_0_0 () Bool)
(declare-fun aw_0_2 () Int)
(declare-fun aw_1_2 () Int)
(declare-fun aw_0_1 () Int)
(declare-fun aw_1_1 () Int)
(declare-fun aw_0_0 () Int)
(declare-fun aw_1_0 () Int)
(declare-fun t_w_0_0 () Int)
(declare-fun w_1 () Int)
(declare-fun err_1 () Bool)
(declare-fun xn_0 () Int)
(declare-fun xa_0 () Int)
(declare-fun success_2 () Bool)
(declare-fun t_success_1_0 () Bool)
(declare-fun aw_2_2 () Int)
(declare-fun aw_2_1 () Int)
(declare-fun aw_2_0 () Int)
(declare-fun t_w_1_0 () Int)
(declare-fun w_2 () Int)
(declare-fun err_2 () Bool)
(declare-fun xn_1 () Int)
(declare-fun xa_1 () Int)
(declare-fun f_1 () Proc)
(declare-fun block_num_1 () Int)
(declare-fun block_num_2 () Int)
(declare-fun success_3 () Bool)
(declare-fun t_success_2_0 () Bool)
(declare-fun aw_3_2 () Int)
(declare-fun aw_3_1 () Int)
(declare-fun aw_3_0 () Int)
(declare-fun t_w_2_0 () Int)
(declare-fun w_3 () Int)
(declare-fun err_3 () Bool)
(declare-fun xn_2 () Int)
(declare-fun xa_2 () Int)
(declare-fun f_2 () Proc)
(declare-fun block_num_3 () Int)
(declare-fun success_4 () Bool)
(declare-fun t_success_3_0 () Bool)
(declare-fun aw_4_2 () Int)
(declare-fun aw_4_1 () Int)
(declare-fun aw_4_0 () Int)
(declare-fun t_w_3_0 () Int)
(declare-fun w_4 () Int)
(declare-fun err_4 () Bool)
(declare-fun xn_3 () Int)
(declare-fun xa_3 () Int)
(declare-fun f_3 () Proc)
(declare-fun block_num_4 () Int)
(declare-fun success_5 () Bool)
(declare-fun t_success_4_0 () Bool)
(declare-fun aw_5_2 () Int)
(declare-fun aw_5_1 () Int)
(declare-fun aw_5_0 () Int)
(declare-fun t_w_4_0 () Int)
(declare-fun w_5 () Int)
(declare-fun err_5 () Bool)
(declare-fun xn_4 () Int)
(declare-fun xa_4 () Int)
(declare-fun f_4 () Proc)
(declare-fun block_num_5 () Int)
(declare-fun success_6 () Bool)
(declare-fun t_success_5_0 () Bool)
(declare-fun aw_6_2 () Int)
(declare-fun aw_6_1 () Int)
(declare-fun aw_6_0 () Int)
(declare-fun t_w_5_0 () Int)
(declare-fun w_6 () Int)
(declare-fun err_6 () Bool)
(declare-fun xn_5 () Int)
(declare-fun xa_5 () Int)
(declare-fun f_5 () Proc)
(declare-fun block_num_6 () Int)
(declare-fun success_7 () Bool)
(declare-fun t_success_6_0 () Bool)
(declare-fun aw_7_2 () Int)
(declare-fun aw_7_1 () Int)
(declare-fun aw_7_0 () Int)
(declare-fun t_w_6_0 () Int)
(declare-fun w_7 () Int)
(declare-fun err_7 () Bool)
(declare-fun xn_6 () Int)
(declare-fun xa_6 () Int)
(declare-fun f_6 () Proc)
(declare-fun block_num_7 () Int)
(declare-fun success_8 () Bool)
(declare-fun t_success_7_0 () Bool)
(declare-fun aw_8_2 () Int)
(declare-fun aw_8_1 () Int)
(declare-fun aw_8_0 () Int)
(declare-fun t_w_7_0 () Int)
(declare-fun w_8 () Int)
(declare-fun err_8 () Bool)
(declare-fun xn_7 () Int)
(declare-fun xa_7 () Int)
(declare-fun f_7 () Proc)
(declare-fun block_num_8 () Int)
(declare-fun success_9 () Bool)
(declare-fun t_success_8_0 () Bool)
(declare-fun aw_9_2 () Int)
(declare-fun aw_9_1 () Int)
(declare-fun aw_9_0 () Int)
(declare-fun t_w_8_0 () Int)
(declare-fun w_9 () Int)
(declare-fun err_9 () Bool)
(declare-fun xn_8 () Int)
(declare-fun xa_8 () Int)
(declare-fun f_8 () Proc)
(declare-fun block_num_9 () Int)
(declare-fun success_10 () Bool)
(declare-fun t_success_9_0 () Bool)
(declare-fun aw_10_2 () Int)
(declare-fun aw_10_1 () Int)
(declare-fun aw_10_0 () Int)
(declare-fun t_w_9_0 () Int)
(declare-fun w_10 () Int)
(declare-fun err_10 () Bool)
(declare-fun xn_9 () Int)
(declare-fun xa_9 () Int)
(declare-fun f_9 () Proc)
(declare-fun block_num_10 () Int)
(assert
 (>= w_0 0))
(assert
 (let (($x3165 (= t_success_0_0 success_1)))
 (let (($x3163 (= aw_1_2 aw_0_2)))
 (let (($x3162 (= aw_1_1 aw_0_1)))
 (let (($x3161 (= aw_1_0 aw_0_0)))
 (let (($x3160 (= w_1 t_w_0_0)))
 (let (($x3167 (and (> xn_0 0) (= err_1 false) true (= t_success_0_0 false) (and $x3160 (and $x3161 $x3162 $x3163) $x3165))))
 (and (and (>= xa_0 0) (<= xa_0 2) (>= xn_0 0)) (and (>= aw_0_0 0) (>= aw_0_1 0) (>= aw_0_2 0)) (and (= t_w_0_0 (+ w_0 xn_0)) $x3167)))))))))
(assert
 (let (($x3211 (= t_success_1_0 success_2)))
 (let (($x3194 (= aw_2_2 aw_1_2)))
 (let (($x3193 (= aw_2_1 aw_1_1)))
 (let (($x3192 (= aw_2_0 aw_1_0)))
 (let (($x3195 (and $x3192 $x3193 $x3194)))
 (let (($x3191 (= w_2 t_w_1_0)))
 (let (($x3188 (= err_2 false)))
 (let (($x3210 (ite (and (>= t_w_1_0 10)) (and (= t_success_1_0 true) true) (and true true (= t_success_1_0 success_1)))))
 (let (($x3190 (= t_w_1_0 (+ w_1 xn_1))))
 (let (($x3202 (<= xa_1 2)))
 (let (($x3201 (>= xa_1 1)))
 (let (($x3215 (and $x3201 $x3202 (and $x3190 (and $x3210 $x3188 true (and $x3191 $x3195 $x3211))))))
 (let (($x3187 (= xa_1 0)))
 (let (($x3199 (and $x3187 (and $x3188 $x3190 (and $x3191 $x3195 (= success_1 success_2))))))
 (let (($x3186 (= f_1 coinbase)))
 (and (and (>= xn_1 0) (>= w_2 0)) (and (>= aw_1_0 0) (>= aw_1_1 0) (>= aw_1_2 0)) (>= block_num_2 block_num_1) (ite $x3186 $x3199 $x3215))))))))))))))))))
(assert
 (let (($x3260 (= t_success_2_0 success_3)))
 (let (($x3245 (= aw_3_2 aw_2_2)))
 (let (($x3244 (= aw_3_1 aw_2_1)))
 (let (($x3243 (= aw_3_0 aw_2_0)))
 (let (($x3246 (and $x3243 $x3244 $x3245)))
 (let (($x3242 (= w_3 t_w_2_0)))
 (let (($x3239 (= err_3 false)))
 (let (($x3259 (ite (and (>= t_w_2_0 10)) (and (= t_success_2_0 true) true) (and true true (= t_success_2_0 success_2)))))
 (let (($x3241 (= t_w_2_0 (+ w_2 xn_2))))
 (let (($x3252 (<= xa_2 2)))
 (let (($x3251 (>= xa_2 1)))
 (let (($x3264 (and $x3251 $x3252 (and $x3241 (and $x3259 $x3239 true (and $x3242 $x3246 $x3260))))))
 (let (($x3238 (= xa_2 0)))
 (let (($x3250 (and $x3238 (and $x3239 $x3241 (and $x3242 $x3246 (= success_2 success_3))))))
 (let (($x3237 (= f_2 coinbase)))
 (and (and (>= xn_2 0) (>= w_3 0)) (and (>= aw_2_0 0) (>= aw_2_1 0) (>= aw_2_2 0)) (>= block_num_3 block_num_2) (ite $x3237 $x3250 $x3264))))))))))))))))))
(assert
 (let (($x3309 (= t_success_3_0 success_4)))
 (let (($x3294 (= aw_4_2 aw_3_2)))
 (let (($x3293 (= aw_4_1 aw_3_1)))
 (let (($x3292 (= aw_4_0 aw_3_0)))
 (let (($x3295 (and $x3292 $x3293 $x3294)))
 (let (($x3291 (= w_4 t_w_3_0)))
 (let (($x3288 (= err_4 false)))
 (let (($x3308 (ite (and (>= t_w_3_0 10)) (and (= t_success_3_0 true) true) (and true true (= t_success_3_0 success_3)))))
 (let (($x3290 (= t_w_3_0 (+ w_3 xn_3))))
 (let (($x3301 (<= xa_3 2)))
 (let (($x3300 (>= xa_3 1)))
 (let (($x3313 (and $x3300 $x3301 (and $x3290 (and $x3308 $x3288 true (and $x3291 $x3295 $x3309))))))
 (let (($x3287 (= xa_3 0)))
 (let (($x3299 (and $x3287 (and $x3288 $x3290 (and $x3291 $x3295 (= success_3 success_4))))))
 (let (($x3286 (= f_3 coinbase)))
 (and (and (>= xn_3 0) (>= w_4 0)) (and (>= aw_3_0 0) (>= aw_3_1 0) (>= aw_3_2 0)) (>= block_num_4 block_num_3) (ite $x3286 $x3299 $x3313))))))))))))))))))
(assert
 (let (($x3358 (= t_success_4_0 success_5)))
 (let (($x3343 (= aw_5_2 aw_4_2)))
 (let (($x3342 (= aw_5_1 aw_4_1)))
 (let (($x3341 (= aw_5_0 aw_4_0)))
 (let (($x3344 (and $x3341 $x3342 $x3343)))
 (let (($x3340 (= w_5 t_w_4_0)))
 (let (($x3337 (= err_5 false)))
 (let (($x3357 (ite (and (>= t_w_4_0 10)) (and (= t_success_4_0 true) true) (and true true (= t_success_4_0 success_4)))))
 (let (($x3339 (= t_w_4_0 (+ w_4 xn_4))))
 (let (($x3350 (<= xa_4 2)))
 (let (($x3349 (>= xa_4 1)))
 (let (($x3362 (and $x3349 $x3350 (and $x3339 (and $x3357 $x3337 true (and $x3340 $x3344 $x3358))))))
 (let (($x3336 (= xa_4 0)))
 (let (($x3348 (and $x3336 (and $x3337 $x3339 (and $x3340 $x3344 (= success_4 success_5))))))
 (let (($x3335 (= f_4 coinbase)))
 (and (and (>= xn_4 0) (>= w_5 0)) (and (>= aw_4_0 0) (>= aw_4_1 0) (>= aw_4_2 0)) (>= block_num_5 block_num_4) (ite $x3335 $x3348 $x3362))))))))))))))))))
(assert
 (let (($x3407 (= t_success_5_0 success_6)))
 (let (($x3392 (= aw_6_2 aw_5_2)))
 (let (($x3391 (= aw_6_1 aw_5_1)))
 (let (($x3390 (= aw_6_0 aw_5_0)))
 (let (($x3393 (and $x3390 $x3391 $x3392)))
 (let (($x3389 (= w_6 t_w_5_0)))
 (let (($x3386 (= err_6 false)))
 (let (($x3406 (ite (and (>= t_w_5_0 10)) (and (= t_success_5_0 true) true) (and true true (= t_success_5_0 success_5)))))
 (let (($x3388 (= t_w_5_0 (+ w_5 xn_5))))
 (let (($x3399 (<= xa_5 2)))
 (let (($x3398 (>= xa_5 1)))
 (let (($x3411 (and $x3398 $x3399 (and $x3388 (and $x3406 $x3386 true (and $x3389 $x3393 $x3407))))))
 (let (($x3385 (= xa_5 0)))
 (let (($x3397 (and $x3385 (and $x3386 $x3388 (and $x3389 $x3393 (= success_5 success_6))))))
 (let (($x3384 (= f_5 coinbase)))
 (and (and (>= xn_5 0) (>= w_6 0)) (and (>= aw_5_0 0) (>= aw_5_1 0) (>= aw_5_2 0)) (>= block_num_6 block_num_5) (ite $x3384 $x3397 $x3411))))))))))))))))))
(assert
 (let (($x3456 (= t_success_6_0 success_7)))
 (let (($x3441 (= aw_7_2 aw_6_2)))
 (let (($x3440 (= aw_7_1 aw_6_1)))
 (let (($x3439 (= aw_7_0 aw_6_0)))
 (let (($x3442 (and $x3439 $x3440 $x3441)))
 (let (($x3438 (= w_7 t_w_6_0)))
 (let (($x3435 (= err_7 false)))
 (let (($x3455 (ite (and (>= t_w_6_0 10)) (and (= t_success_6_0 true) true) (and true true (= t_success_6_0 success_6)))))
 (let (($x3437 (= t_w_6_0 (+ w_6 xn_6))))
 (let (($x3448 (<= xa_6 2)))
 (let (($x3447 (>= xa_6 1)))
 (let (($x3460 (and $x3447 $x3448 (and $x3437 (and $x3455 $x3435 true (and $x3438 $x3442 $x3456))))))
 (let (($x3434 (= xa_6 0)))
 (let (($x3446 (and $x3434 (and $x3435 $x3437 (and $x3438 $x3442 (= success_6 success_7))))))
 (let (($x3433 (= f_6 coinbase)))
 (and (and (>= xn_6 0) (>= w_7 0)) (and (>= aw_6_0 0) (>= aw_6_1 0) (>= aw_6_2 0)) (>= block_num_7 block_num_6) (ite $x3433 $x3446 $x3460))))))))))))))))))
(assert
 (let (($x3505 (= t_success_7_0 success_8)))
 (let (($x3490 (= aw_8_2 aw_7_2)))
 (let (($x3489 (= aw_8_1 aw_7_1)))
 (let (($x3488 (= aw_8_0 aw_7_0)))
 (let (($x3491 (and $x3488 $x3489 $x3490)))
 (let (($x3487 (= w_8 t_w_7_0)))
 (let (($x3484 (= err_8 false)))
 (let (($x3504 (ite (and (>= t_w_7_0 10)) (and (= t_success_7_0 true) true) (and true true (= t_success_7_0 success_7)))))
 (let (($x3486 (= t_w_7_0 (+ w_7 xn_7))))
 (let (($x3497 (<= xa_7 2)))
 (let (($x3496 (>= xa_7 1)))
 (let (($x3509 (and $x3496 $x3497 (and $x3486 (and $x3504 $x3484 true (and $x3487 $x3491 $x3505))))))
 (let (($x3483 (= xa_7 0)))
 (let (($x3495 (and $x3483 (and $x3484 $x3486 (and $x3487 $x3491 (= success_7 success_8))))))
 (let (($x3482 (= f_7 coinbase)))
 (and (and (>= xn_7 0) (>= w_8 0)) (and (>= aw_7_0 0) (>= aw_7_1 0) (>= aw_7_2 0)) (>= block_num_8 block_num_7) (ite $x3482 $x3495 $x3509))))))))))))))))))
(assert
 (let (($x3554 (= t_success_8_0 success_9)))
 (let (($x3539 (= aw_9_2 aw_8_2)))
 (let (($x3538 (= aw_9_1 aw_8_1)))
 (let (($x3537 (= aw_9_0 aw_8_0)))
 (let (($x3540 (and $x3537 $x3538 $x3539)))
 (let (($x3536 (= w_9 t_w_8_0)))
 (let (($x3533 (= err_9 false)))
 (let (($x3553 (ite (and (>= t_w_8_0 10)) (and (= t_success_8_0 true) true) (and true true (= t_success_8_0 success_8)))))
 (let (($x3535 (= t_w_8_0 (+ w_8 xn_8))))
 (let (($x3546 (<= xa_8 2)))
 (let (($x3545 (>= xa_8 1)))
 (let (($x3558 (and $x3545 $x3546 (and $x3535 (and $x3553 $x3533 true (and $x3536 $x3540 $x3554))))))
 (let (($x3532 (= xa_8 0)))
 (let (($x3544 (and $x3532 (and $x3533 $x3535 (and $x3536 $x3540 (= success_8 success_9))))))
 (let (($x3531 (= f_8 coinbase)))
 (and (and (>= xn_8 0) (>= w_9 0)) (and (>= aw_8_0 0) (>= aw_8_1 0) (>= aw_8_2 0)) (>= block_num_9 block_num_8) (ite $x3531 $x3544 $x3558))))))))))))))))))
(assert
 (let (($x3603 (= t_success_9_0 success_10)))
 (let (($x3588 (= aw_10_2 aw_9_2)))
 (let (($x3587 (= aw_10_1 aw_9_1)))
 (let (($x3586 (= aw_10_0 aw_9_0)))
 (let (($x3589 (and $x3586 $x3587 $x3588)))
 (let (($x3585 (= w_10 t_w_9_0)))
 (let (($x3582 (= err_10 false)))
 (let (($x3602 (ite (and (>= t_w_9_0 10)) (and (= t_success_9_0 true) true) (and true true (= t_success_9_0 success_9)))))
 (let (($x3584 (= t_w_9_0 (+ w_9 xn_9))))
 (let (($x3595 (<= xa_9 2)))
 (let (($x3594 (>= xa_9 1)))
 (let (($x3607 (and $x3594 $x3595 (and $x3584 (and $x3602 $x3582 true (and $x3585 $x3589 $x3603))))))
 (let (($x3581 (= xa_9 0)))
 (let (($x3593 (and $x3581 (and $x3582 $x3584 (and $x3585 $x3589 (= success_9 success_10))))))
 (let (($x3580 (= f_9 coinbase)))
 (and (and (>= xn_9 0) (>= w_10 0)) (and (>= aw_9_0 0) (>= aw_9_1 0) (>= aw_9_2 0)) (>= block_num_10 block_num_9) (ite $x3580 $x3593 $x3607))))))))))))))))))
(assert
 (let (($x3648 (exists ((xa_q Int) )(let (($x3643 (forall ((xn_q0 Int) (f_q0 Proc) (wq0 Int) (awq0_0 Int) (awq0_1 Int) (awq0_2 Int) (t_wq0_0 Int) (t_wq0_1 Int) (t_wq0_2 Int) (t_wq0_3 Int) (t_wq0_4 Int) (t_wq0_5 Int) (t_wq0_6 Int) (t_wq0_7 Int) (t_wq0_8 Int) (t_wq0_9 Int) (t_wq0_10 Int) (t_wq0_11 Int) (t_wq0_12 Int) (t_wq0_13 Int) (t_wq0_14 Int) (t_wq0_15 Int) (t_wq0_16 Int) (t_wq0_17 Int) (t_wq0_18 Int) (t_wq0_19 Int) (t_wq0_20 Int) (t_wq0_21 Int) (t_wq0_22 Int) (t_wq0_23 Int) (t_wq0_24 Int) (t_wq0_25 Int) (t_wq0_26 Int) (t_wq0_27 Int) (t_wq0_28 Int) (t_wq0_29 Int) (t_wq0_30 Int) (t_wq0_31 Int) (t_wq0_32 Int) (t_wq0_33 Int) (t_wq0_34 Int) (t_wq0_35 Int) (t_wq0_36 Int) (t_wq0_37 Int) (t_wq0_38 Int) (t_wq0_39 Int) (t_wq0_40 Int) (t_wq0_41 Int) (t_wq0_42 Int) (t_wq0_43 Int) (t_wq0_44 Int) (t_wq0_45 Int) (t_wq0_46 Int) (t_wq0_47 Int) (t_wq0_48 Int) (t_wq0_49 Int) (t_awq0_0_0 Int) (t_awq0_0_1 Int) (t_awq0_0_2 Int) (t_awq0_1_0 Int) (t_awq0_1_1 Int) (t_awq0_1_2 Int) (t_awq0_2_0 Int) (t_awq0_2_1 Int) (t_awq0_2_2 Int) (t_awq0_3_0 Int) (t_awq0_3_1 Int) (t_awq0_3_2 Int) (t_awq0_4_0 Int) (t_awq0_4_1 Int) (t_awq0_4_2 Int) (t_awq0_5_0 Int) (t_awq0_5_1 Int) (t_awq0_5_2 Int) (t_awq0_6_0 Int) (t_awq0_6_1 Int) (t_awq0_6_2 Int) (t_awq0_7_0 Int) (t_awq0_7_1 Int) (t_awq0_7_2 Int) (t_awq0_8_0 Int) (t_awq0_8_1 Int) (t_awq0_8_2 Int) (t_awq0_9_0 Int) (t_awq0_9_1 Int) (t_awq0_9_2 Int) (t_awq0_10_0 Int) (t_awq0_10_1 Int) (t_awq0_10_2 Int) (t_awq0_11_0 Int) (t_awq0_11_1 Int) (t_awq0_11_2 Int) (t_awq0_12_0 Int) (t_awq0_12_1 Int) (t_awq0_12_2 Int) (t_awq0_13_0 Int) (t_awq0_13_1 Int) (t_awq0_13_2 Int) (t_awq0_14_0 Int) (t_awq0_14_1 Int) (t_awq0_14_2 Int) (t_awq0_15_0 Int) (t_awq0_15_1 Int) (t_awq0_15_2 Int) (t_awq0_16_0 Int) (t_awq0_16_1 Int) (t_awq0_16_2 Int) (t_awq0_17_0 Int) (t_awq0_17_1 Int) (t_awq0_17_2 Int) (t_awq0_18_0 Int) (t_awq0_18_1 Int) (t_awq0_18_2 Int) (t_awq0_19_0 Int) (t_awq0_19_1 Int) (t_awq0_19_2 Int) (t_awq0_20_0 Int) (t_awq0_20_1 Int) (t_awq0_20_2 Int) (t_awq0_21_0 Int) (t_awq0_21_1 Int) (t_awq0_21_2 Int) (t_awq0_22_0 Int) (t_awq0_22_1 Int) (t_awq0_22_2 Int) (t_awq0_23_0 Int) (t_awq0_23_1 Int) (t_awq0_23_2 Int) (t_awq0_24_0 Int) (t_awq0_24_1 Int) (t_awq0_24_2 Int) (t_awq0_25_0 Int) (t_awq0_25_1 Int) (t_awq0_25_2 Int) (t_awq0_26_0 Int) (t_awq0_26_1 Int) (t_awq0_26_2 Int) (t_awq0_27_0 Int) (t_awq0_27_1 Int) (t_awq0_27_2 Int) (t_awq0_28_0 Int) (t_awq0_28_1 Int) (t_awq0_28_2 Int) (t_awq0_29_0 Int) (t_awq0_29_1 Int) (t_awq0_29_2 Int) (t_awq0_30_0 Int) (t_awq0_30_1 Int) (t_awq0_30_2 Int) (t_awq0_31_0 Int) (t_awq0_31_1 Int) (t_awq0_31_2 Int) (t_awq0_32_0 Int) (t_awq0_32_1 Int) (t_awq0_32_2 Int) (t_awq0_33_0 Int) (t_awq0_33_1 Int) (t_awq0_33_2 Int) (t_awq0_34_0 Int) (t_awq0_34_1 Int) (t_awq0_34_2 Int) (t_awq0_35_0 Int) (t_awq0_35_1 Int) (t_awq0_35_2 Int) (t_awq0_36_0 Int) (t_awq0_36_1 Int) (t_awq0_36_2 Int) (t_awq0_37_0 Int) (t_awq0_37_1 Int) (t_awq0_37_2 Int) (t_awq0_38_0 Int) (t_awq0_38_1 Int) (t_awq0_38_2 Int) (t_awq0_39_0 Int) (t_awq0_39_1 Int) (t_awq0_39_2 Int) (t_awq0_40_0 Int) (t_awq0_40_1 Int) (t_awq0_40_2 Int) (t_awq0_41_0 Int) (t_awq0_41_1 Int) (t_awq0_41_2 Int) (t_awq0_42_0 Int) (t_awq0_42_1 Int) (t_awq0_42_2 Int) (t_awq0_43_0 Int) (t_awq0_43_1 Int) (t_awq0_43_2 Int) (t_awq0_44_0 Int) (t_awq0_44_1 Int) (t_awq0_44_2 Int) (t_awq0_45_0 Int) (t_awq0_45_1 Int) (t_awq0_45_2 Int) (t_awq0_46_0 Int) (t_awq0_46_1 Int) (t_awq0_46_2 Int) (t_awq0_47_0 Int) (t_awq0_47_1 Int) (t_awq0_47_2 Int) (t_awq0_48_0 Int) (t_awq0_48_1 Int) (t_awq0_48_2 Int) (t_awq0_49_0 Int) (t_awq0_49_1 Int) (t_awq0_49_2 Int) (err_q0 Bool) (successq0 Bool) (t_successq0_0 Bool) (t_successq0_1 Bool) (t_successq0_2 Bool) (t_successq0_3 Bool) (t_successq0_4 Bool) (t_successq0_5 Bool) (t_successq0_6 Bool) (t_successq0_7 Bool) (t_successq0_8 Bool) (t_successq0_9 Bool) (t_successq0_10 Bool) (t_successq0_11 Bool) (t_successq0_12 Bool) (t_successq0_13 Bool) (t_successq0_14 Bool) (t_successq0_15 Bool) (t_successq0_16 Bool) (t_successq0_17 Bool) (t_successq0_18 Bool) (t_successq0_19 Bool) (t_successq0_20 Bool) (t_successq0_21 Bool) (t_successq0_22 Bool) (t_successq0_23 Bool) (t_successq0_24 Bool) (t_successq0_25 Bool) (t_successq0_26 Bool) (t_successq0_27 Bool) (t_successq0_28 Bool) (t_successq0_29 Bool) (t_successq0_30 Bool) (t_successq0_31 Bool) (t_successq0_32 Bool) (t_successq0_33 Bool) (t_successq0_34 Bool) (t_successq0_35 Bool) (t_successq0_36 Bool) (t_successq0_37 Bool) (t_successq0_38 Bool) (t_successq0_39 Bool) (t_successq0_40 Bool) (t_successq0_41 Bool) (t_successq0_42 Bool) (t_successq0_43 Bool) (t_successq0_44 Bool) (t_successq0_45 Bool) (t_successq0_46 Bool) (t_successq0_47 Bool) (t_successq0_48 Bool) (t_successq0_49 Bool) )(let (($x3927 (and (= awq0_0 aw_10_0) (= awq0_1 aw_10_1) (= awq0_2 aw_10_2))))
(let (($x3928 (= wq0 t_wq0_0)))
(let (($x3930 (= err_q0 false)))
(let (($x3937 (ite (and (>= t_wq0_0 10)) (and (= t_successq0_0 true) true) (and true true (= t_successq0_0 success_10)))))
(let (($x3940 (= t_wq0_0 (+ w_10 xn_q0))))
(let (($x3636 (and (>= xa_q 1) (<= xa_q 2) (and $x3940 (and $x3937 $x3930 true (and $x3928 $x3927 (= t_successq0_0 successq0)))))))
(let (($x3638 (and (= xa_q 0) (and $x3930 $x3940 (and $x3928 $x3927 (= success_10 successq0))))))
(let (($x3640 (and (and (>= xn_q0 0) (>= wq0 0)) (and (>= aw_10_0 0) (>= aw_10_1 0) (>= aw_10_2 0)) (>= block_num_10 block_num_10) (ite (= f_q0 coinbase) $x3638 $x3636))))
(or (not $x3640) (not successq0)))))))))))
))
(and (and (>= xa_q 1) (<= xa_q 2)) (> w_10 0) $x3643)))
))
(and $x3648)))
(check-sat)

(get-model)